(set-info :smt-lib-version 2.6)
(set-logic UF)
(set-info :source |Benchmarks from the paper: "Extending Sledgehammer with SMT Solvers" by Jasmin Blanchette, Sascha Bohme, and Lawrence C. Paulson, CADE 2011.  Translated to SMT2 by Andrew Reynolds and Morgan Deters.|)
(set-info :category "industrial")
(set-info :status unknown)
(declare-sort S1 0)
(declare-sort S2 0)
(declare-sort S3 0)
(declare-sort S4 0)
(declare-sort S5 0)
(declare-sort S6 0)
(declare-sort S7 0)
(declare-sort S8 0)
(declare-sort S9 0)
(declare-sort S10 0)
(declare-sort S11 0)
(declare-sort S12 0)
(declare-sort S13 0)
(declare-sort S14 0)
(declare-sort S15 0)
(declare-sort S16 0)
(declare-sort S17 0)
(declare-sort S18 0)
(declare-sort S19 0)
(declare-sort S20 0)
(declare-sort S21 0)
(declare-fun f1 () S1)
(declare-fun f2 () S1)
(declare-fun f3 () S2)
(declare-fun f4 (S3 S4) S2)
(declare-fun f5 () S3)
(declare-fun f6 () S4)
(declare-fun f7 () S5)
(declare-fun f8 (S6 S5) S5)
(declare-fun f9 (S7 S5) S6)
(declare-fun f10 () S7)
(declare-fun f11 (S8 S2) S5)
(declare-fun f12 () S8)
(declare-fun f13 () S2)
(declare-fun f14 (S9 S4) S5)
(declare-fun f15 () S9)
(declare-fun f16 () S4)
(declare-fun f17 () S8)
(declare-fun f18 () S2)
(declare-fun f19 (S10 S2) S6)
(declare-fun f20 () S10)
(declare-fun f21 (S5 S11) S1)
(declare-fun f22 (S11) S11)
(declare-fun f23 (S12 S13) S11)
(declare-fun f24 (S4) S12)
(declare-fun f25 () S4)
(declare-fun f26 () S13)
(declare-fun f27 () S2)
(declare-fun f28 (S14 S11) S11)
(declare-fun f29 (S5) S14)
(declare-fun f30 () S11)
(declare-fun f31 () S2)
(declare-fun f32 (S13 S15) S1)
(declare-fun f33 () S15)
(declare-fun f34 (S13) S11)
(declare-fun f35 (S2 S16) S1)
(declare-fun f36 () S16)
(declare-fun f37 (S17 S18) S1)
(declare-fun f38 (S4 S4 S5) S17)
(declare-fun f39 () S4)
(declare-fun f40 () S4)
(declare-fun f41 (S13) S18)
(declare-fun f42 (S4 S19) S1)
(declare-fun f43 () S19)
(declare-fun f44 (S20 S13) S13)
(declare-fun f45 (S21 S17) S20)
(declare-fun f46 () S21)
(assert (not (= f1 f2)))
(assert (let ((?v_0 (f9 f10 (f11 f17 f18))) (?v_1 (f4 f5 f16))) (let ((?v_2 (f8 ?v_0 (f14 f15 f6))) (?v_4 (f22 (f23 (f24 f25) f26))) (?v_3 (f11 f17 f27))) (not (=> (and (or (and (= f3 (f4 f5 f6)) (= f7 (f8 (f9 f10 (f11 f12 f13)) (f8 (f9 f10 (f14 f15 f16)) (f8 ?v_0 (f8 (f19 f20 ?v_1) ?v_2)))))) (or (and (= f3 ?v_1) (= f7 ?v_2)) (= (f21 (f8 (f19 f20 f3) f7) ?v_4) f1))) (= (f21 ?v_3 (f22 (f28 (f29 f7) f30))) f1)) (or (= f27 f18) (= (f21 ?v_3 ?v_4) f1)))))))
(assert (forall ((?v0 S4)) (not (= f31 (f4 f5 ?v0)))))
(assert (= (f32 f26 f33) f1))
(assert (let ((?v_1 (f22 (f23 (f24 f25) f26))) (?v_0 (f11 f17 f27))) (=> (and (= (f21 (f8 (f19 f20 f3) f7) ?v_1) f1) (= (f21 ?v_0 (f22 (f28 (f29 f7) f30))) f1)) (= (f21 ?v_0 ?v_1) f1))))
(assert (not (= (f21 (f11 f17 f18) (f34 f26)) f1)))
(assert (= (f35 f18 f36) f1))
(assert (= (f37 (f38 f39 f40 (f8 (f9 f10 (f14 f15 f6)) (f8 (f9 f10 (f14 f15 f16)) (f11 f12 f13)))) (f41 f26)) f1))
(assert (forall ((?v0 S4) (?v1 S5) (?v2 S5) (?v3 S5) (?v4 S5) (?v5 S13)) (=> (= (f37 (f38 f40 ?v0 (f8 (f19 f20 (f4 f5 ?v0)) (f8 (f9 f10 ?v1) (f8 (f9 f10 ?v2) (f8 (f9 f10 ?v3) ?v4))))) (f41 ?v5)) f1) (= (f21 ?v3 (f22 (f23 (f24 f25) ?v5))) f1))))
(assert (forall ((?v0 S4) (?v1 S4) (?v2 S2) (?v3 S5) (?v4 S5) (?v5 S5) (?v6 S5) (?v7 S13)) (=> (= (f37 (f38 ?v0 ?v1 (f8 (f19 f20 ?v2) (f8 (f9 f10 ?v3) (f8 (f9 f10 ?v4) (f8 (f9 f10 ?v5) ?v6))))) (f41 ?v7)) f1) (= (f21 ?v6 (f22 (f23 (f24 f25) ?v7))) f1))))
(assert (forall ((?v0 S5) (?v1 S13)) (=> (= (f21 ?v0 (f22 (f23 (f24 f25) ?v1))) f1) (= (f21 ?v0 (f34 ?v1)) f1))))
(assert (forall ((?v0 S4) (?v1 S13)) (= (f21 (f11 f17 (f4 f5 ?v0)) (f34 ?v1)) f1)))
(assert (forall ((?v0 S4) (?v1 S13)) (= (f21 (f11 f17 (f4 f5 ?v0)) (f23 (f24 ?v0) ?v1)) f1)))
(assert (forall ((?v0 S4)) (= (f35 (f4 f5 ?v0) f36) f1)))
(assert (forall ((?v0 S4) (?v1 S5) (?v2 S4) (?v3 S2) (?v4 S5) (?v5 S13)) (let ((?v_0 (f8 (f19 f20 (f4 f5 ?v0)) (f8 (f9 f10 ?v1) (f8 (f9 f10 (f14 f15 ?v2)) (f8 (f9 f10 (f11 f17 ?v3)) ?v4)))))) (=> (= (f21 ?v_0 (f22 (f23 (f24 f25) ?v5))) f1) (=> (not (= (f42 ?v0 f43) f1)) (=> (= (f32 ?v5 f33) f1) (= (f37 (f38 f40 ?v0 ?v_0) (f41 ?v5)) f1)))))))
(assert (forall ((?v0 S5)) (=> (= (f21 ?v0 (f22 f30)) f1) false)))
(assert (forall ((?v0 S4) (?v1 S4) (?v2 S5) (?v3 S13)) (=> (= (f37 (f38 ?v0 ?v1 ?v2) (f41 ?v3)) f1) (=> (=> (= (f21 ?v2 (f22 (f23 (f24 f25) ?v3))) f1) false) false))))
(assert (forall ((?v0 S5) (?v1 S5) (?v2 S13)) (let ((?v_0 (f34 ?v2))) (=> (= (f21 (f8 (f9 f10 ?v0) ?v1) ?v_0) f1) (=> (=> (= (f21 ?v0 ?v_0) f1) (=> (= (f21 ?v1 ?v_0) f1) false)) false)))))
(assert (forall ((?v0 S5) (?v1 S5) (?v2 S11)) (let ((?v_0 (f22 ?v2))) (=> (= (f21 (f8 (f9 f10 ?v0) ?v1) ?v_0) f1) (=> (=> (= (f21 ?v0 ?v_0) f1) (=> (= (f21 ?v1 ?v_0) f1) false)) false)))))
(assert (forall ((?v0 S4) (?v1 S4) (?v2 S5) (?v3 S13)) (=> (= (f37 (f38 ?v0 ?v1 ?v2) (f41 ?v3)) f1) (= (f21 ?v2 (f23 (f24 f25) ?v3)) f1))))
(assert (forall ((?v0 S13) (?v1 S2) (?v2 S4) (?v3 S4) (?v4 S4) (?v5 S2)) (let ((?v_2 (f11 f17 ?v1)) (?v_4 (f14 f15 ?v3)) (?v_1 (f9 f10 (f14 f15 ?v4))) (?v_0 (f11 f12 ?v5))) (let ((?v_3 (f9 f10 ?v_2))) (=> (= (f32 ?v0 f33) f1) (=> (not (= (f21 ?v_2 (f34 ?v0)) f1)) (=> (= (f35 ?v1 f36) f1) (=> (= (f37 (f38 ?v2 f40 (f8 (f9 f10 ?v_4) (f8 ?v_1 ?v_0))) (f41 ?v0)) f1) (= (f32 (f44 (f45 f46 (f38 f40 ?v3 (f8 (f19 f20 (f4 f5 ?v3)) (f8 (f9 f10 ?v_0) (f8 ?v_1 (f8 ?v_3 (f8 (f19 f20 (f4 f5 ?v4)) (f8 ?v_3 ?v_4)))))))) ?v0) f33) f1)))))))))
(assert (forall ((?v0 S4) (?v1 S4) (?v2 S5) (?v3 S13)) (=> (= (f37 (f38 ?v0 ?v1 ?v2) (f41 ?v3)) f1) (= (f21 ?v2 (f34 ?v3)) f1))))
(assert (forall ((?v0 S5) (?v1 S11)) (=> (= (f21 ?v0 ?v1) f1) (= (f21 ?v0 (f22 ?v1)) f1))))
(assert (= (f42 f25 f43) f1))
(assert (forall ((?v0 S4) (?v1 S13)) (=> (= (f42 ?v0 f43) f1) (= (f21 (f11 f17 (f4 f5 ?v0)) (f23 (f24 f25) ?v1)) f1))))
(assert (not (= (f42 f40 f43) f1)))
(assert (forall ((?v0 S4) (?v1 S4) (?v2 S5) (?v3 S13)) (let ((?v_0 (f24 ?v0))) (= (f23 ?v_0 (f44 (f45 f46 (f38 ?v0 ?v1 ?v2)) ?v3)) (f28 (f29 ?v2) (f23 ?v_0 ?v3))))))
(assert (forall ((?v0 S4) (?v1 S4) (?v2 S5) (?v3 S13)) (let ((?v_0 (f24 f25))) (= (f23 ?v_0 (f44 (f45 f46 (f38 ?v0 ?v1 ?v2)) ?v3)) (f28 (f29 ?v2) (f23 ?v_0 ?v3))))))
(assert (forall ((?v0 S5) (?v1 S11)) (let ((?v_0 (f22 ?v1))) (=> (= (f21 ?v0 (f22 ?v_0)) f1) (= (f21 ?v0 ?v_0) f1)))))
(assert (forall ((?v0 S11)) (let ((?v_0 (f22 ?v0))) (= (f22 ?v_0) ?v_0))))
(assert (forall ((?v0 S5) (?v1 S5) (?v2 S5) (?v3 S5)) (= (= (f8 (f9 f10 ?v0) ?v1) (f8 (f9 f10 ?v2) ?v3)) (and (= ?v0 ?v2) (= ?v1 ?v3)))))
(assert (forall ((?v0 S2) (?v1 S2)) (= (= (f11 f17 ?v0) (f11 f17 ?v1)) (= ?v0 ?v1))))
(assert (forall ((?v0 S2) (?v1 S5) (?v2 S2) (?v3 S5)) (= (= (f8 (f19 f20 ?v0) ?v1) (f8 (f19 f20 ?v2) ?v3)) (and (= ?v0 ?v2) (= ?v1 ?v3)))))
(assert (forall ((?v0 S2) (?v1 S2)) (= (= (f11 f12 ?v0) (f11 f12 ?v1)) (= ?v0 ?v1))))
(assert (forall ((?v0 S4) (?v1 S4)) (= (= (f14 f15 ?v0) (f14 f15 ?v1)) (= ?v0 ?v1))))
(assert (forall ((?v0 S4) (?v1 S4) (?v2 S5) (?v3 S4) (?v4 S4) (?v5 S5)) (= (= (f38 ?v0 ?v1 ?v2) (f38 ?v3 ?v4 ?v5)) (and (= ?v0 ?v3) (and (= ?v1 ?v4) (= ?v2 ?v5))))))
(assert (forall ((?v0 S4) (?v1 S4)) (= (= (f4 f5 ?v0) (f4 f5 ?v1)) (= ?v0 ?v1))))
(assert (forall ((?v0 S2) (?v1 S2)) (=> (not (= (= (f35 ?v0 f36) f1) (= (f35 ?v1 f36) f1))) (not (= ?v0 ?v1)))))
(assert (forall ((?v0 S5) (?v1 S11)) (let ((?v_0 (f22 ?v1))) (=> (= (f21 ?v0 ?v_0) f1) (= (f22 (f28 (f29 ?v0) ?v1)) ?v_0)))))
(assert (forall ((?v0 S5) (?v1 S11) (?v2 S5)) (=> (= (f21 ?v0 (f22 ?v1)) f1) (= (f21 ?v0 (f22 (f28 (f29 ?v2) ?v1))) f1))))
(assert (forall ((?v0 S5) (?v1 S5) (?v2 S11)) (let ((?v_0 (f22 ?v2))) (=> (= (f21 (f8 (f9 f10 ?v0) ?v1) ?v_0) f1) (= (f21 ?v1 ?v_0) f1)))))
(assert (forall ((?v0 S5) (?v1 S5) (?v2 S11)) (let ((?v_0 (f22 ?v2))) (=> (= (f21 (f8 (f9 f10 ?v0) ?v1) ?v_0) f1) (= (f21 ?v0 ?v_0) f1)))))
(assert (forall ((?v0 S5) (?v1 S5) (?v2 S2)) (not (= (f8 (f9 f10 ?v0) ?v1) (f11 f17 ?v2)))))
(assert (forall ((?v0 S2) (?v1 S5) (?v2 S5)) (not (= (f11 f17 ?v0) (f8 (f9 f10 ?v1) ?v2)))))
(assert (forall ((?v0 S2) (?v1 S5) (?v2 S11)) (let ((?v_0 (f22 ?v2))) (=> (= (f21 (f8 (f19 f20 ?v0) ?v1) ?v_0) f1) (=> (=> (= (f21 ?v1 ?v_0) f1) false) false)))))
(assert (forall ((?v0 S2) (?v1 S5) (?v2 S11)) (let ((?v_0 (f22 ?v2))) (=> (= (f21 (f8 (f19 f20 ?v0) ?v1) ?v_0) f1) (= (f21 ?v1 ?v_0) f1)))))
(assert (forall ((?v0 S5) (?v1 S5) (?v2 S2) (?v3 S5)) (not (= (f8 (f9 f10 ?v0) ?v1) (f8 (f19 f20 ?v2) ?v3)))))
(assert (forall ((?v0 S2) (?v1 S5) (?v2 S5) (?v3 S5)) (not (= (f8 (f19 f20 ?v0) ?v1) (f8 (f9 f10 ?v2) ?v3)))))
(assert (forall ((?v0 S2) (?v1 S5) (?v2 S2)) (not (= (f8 (f19 f20 ?v0) ?v1) (f11 f17 ?v2)))))
(assert (forall ((?v0 S2) (?v1 S2) (?v2 S5)) (not (= (f11 f17 ?v0) (f8 (f19 f20 ?v1) ?v2)))))
(assert (forall ((?v0 S5) (?v1 S5) (?v2 S2)) (not (= (f8 (f9 f10 ?v0) ?v1) (f11 f12 ?v2)))))
(assert (forall ((?v0 S2) (?v1 S5) (?v2 S5)) (not (= (f11 f12 ?v0) (f8 (f9 f10 ?v1) ?v2)))))
(assert (forall ((?v0 S2) (?v1 S2)) (not (= (f11 f12 ?v0) (f11 f17 ?v1)))))
(assert (forall ((?v0 S2) (?v1 S2)) (not (= (f11 f17 ?v0) (f11 f12 ?v1)))))
(assert (forall ((?v0 S5) (?v1 S5) (?v2 S4)) (not (= (f8 (f9 f10 ?v0) ?v1) (f14 f15 ?v2)))))
(assert (forall ((?v0 S4) (?v1 S5) (?v2 S5)) (not (= (f14 f15 ?v0) (f8 (f9 f10 ?v1) ?v2)))))
(assert (forall ((?v0 S4) (?v1 S2)) (not (= (f14 f15 ?v0) (f11 f17 ?v1)))))
(assert (forall ((?v0 S2) (?v1 S4)) (not (= (f11 f17 ?v0) (f14 f15 ?v1)))))
(assert (forall ((?v0 S2) (?v1 S5) (?v2 S2)) (not (= (f8 (f19 f20 ?v0) ?v1) (f11 f12 ?v2)))))
(assert (forall ((?v0 S2) (?v1 S2) (?v2 S5)) (not (= (f11 f12 ?v0) (f8 (f19 f20 ?v1) ?v2)))))
(assert (forall ((?v0 S2) (?v1 S5) (?v2 S4)) (not (= (f8 (f19 f20 ?v0) ?v1) (f14 f15 ?v2)))))
(assert (forall ((?v0 S4) (?v1 S2) (?v2 S5)) (not (= (f14 f15 ?v0) (f8 (f19 f20 ?v1) ?v2)))))
(assert (forall ((?v0 S5) (?v1 S5) (?v2 S13)) (let ((?v_0 (f34 ?v2))) (=> (= (f21 (f8 (f9 f10 ?v0) ?v1) ?v_0) f1) (and (= (f21 ?v0 ?v_0) f1) (= (f21 ?v1 ?v_0) f1))))))
(assert (forall ((?v0 S2) (?v1 S4)) (not (= (f11 f12 ?v0) (f14 f15 ?v1)))))
(assert (forall ((?v0 S4) (?v1 S2)) (not (= (f14 f15 ?v0) (f11 f12 ?v1)))))
(assert (forall ((?v0 S13) (?v1 S2) (?v2 S4) (?v3 S4)) (let ((?v_0 (f11 f12 ?v1))) (=> (= (f32 ?v0 f33) f1) (=> (not (= (f21 ?v_0 (f34 ?v0)) f1)) (= (f32 (f44 (f45 f46 (f38 ?v2 f40 (f8 (f9 f10 (f14 f15 ?v2)) (f8 (f9 f10 (f14 f15 ?v3)) ?v_0)))) ?v0) f33) f1))))))
(assert (= (f22 f30) f30))
(assert (not (= f40 f25)))
(assert (not (= f25 f40)))
(assert (forall ((?v0 S13) (?v1 S4)) (=> (= (f32 ?v0 f33) f1) (= (= (f21 (f11 f17 (f4 f5 ?v1)) (f22 (f23 (f24 f25) ?v0))) f1) (= (f42 ?v1 f43) f1)))))
(assert (forall ((?v0 S13) (?v1 S4) (?v2 S4) (?v3 S2) (?v4 S4) (?v5 S2) (?v6 S5)) (let ((?v_1 (f11 f12 ?v3)) (?v_0 (f9 f10 (f14 f15 ?v4))) (?v_2 (f41 ?v0))) (=> (= (f32 ?v0 f33) f1) (=> (not (= ?v1 f40)) (=> (= (f37 (f38 ?v2 ?v1 (f8 (f19 f20 (f4 f5 ?v1)) (f8 (f9 f10 ?v_1) (f8 ?v_0 (f8 (f9 f10 (f11 f17 ?v5)) ?v6))))) ?v_2) f1) (=> (= (f37 (f38 ?v1 f40 (f8 (f9 f10 (f14 f15 ?v1)) (f8 ?v_0 ?v_1))) ?v_2) f1) (= (f32 (f44 (f45 f46 (f38 ?v1 ?v4 ?v6)) ?v0) f33) f1))))))))
(check-sat)
(exit)
